%%%mzn-stat: initTime=0.019882544
%%%mzn-stat: objective=176
%%%mzn-stat: nodes=1491
%%%mzn-stat: restarts=0
%%%mzn-stat: peakDepth=719
%%%mzn-stat: solveTime=0.392724798
%%%mzn-stat: variables=1747
%%%mzn-stat: propagators=1388
%%%mzn-stat: failures=471
%%%mzn-stat: propagations=138235
%%%mzn-stat: nogoods=471
%%%mzn-stat: AverageConflictSize=13.910828025477707
%%%mzn-stat: NumUnitNogoodsLearned=175
%%%mzn-stat: AverageLearnedNogoodLength=70.01910828025478
%%%mzn-stat: AverageBacktrackAmount=0
%%%mzn-stat: AverageLbd=13.819532908704883
%%%mzn-stat-end
maxleg = 176;
succ = array1d(1..100,[61, 94, 77, 23, 40, 27, 31, 35, 73, 8, 47, 88, 53, 99, 81, 67, 89, 66, 28, 65, 14, 25, 62, 30, 38, 32, 69, 43, 20, 64, 58, 51, 41, 39, 95, 26, 46, 1, 42, 91, 55, 17, 29, 48, 24, 78, 59, 36, 37, 52, 71, 82, 6, 15, 85, 5, 7, 83, 9, 92, 60, 76, 86, 34, 49, 33, 10, 11, 63, 93, 4, 19, 16, 80, 22, 84, 100, 50, 18, 45, 2, 75, 13, 79, 98, 44, 21, 90, 97, 3, 96, 57, 74, 70, 87, 54, 72, 12, 56, 68]);
% time elapsed: 7.18 s
----------
==========
% time elapsed: 7.18 s
%%%mzn-stat: initTime=0.019882544
%%%mzn-stat: objective=176
%%%mzn-stat: nodes=1491
%%%mzn-stat: restarts=0
%%%mzn-stat: peakDepth=719
%%%mzn-stat: solveTime=0.392740443
%%%mzn-stat: variables=1747
%%%mzn-stat: propagators=1388
%%%mzn-stat: failures=471
%%%mzn-stat: propagations=138235
%%%mzn-stat: nogoods=471
%%%mzn-stat: AverageConflictSize=13.910828025477707
%%%mzn-stat: NumUnitNogoodsLearned=175
%%%mzn-stat: AverageLearnedNogoodLength=70.01910828025478
%%%mzn-stat: AverageBacktrackAmount=0
%%%mzn-stat: AverageLbd=13.819532908704883
%%%mzn-stat-end
